% demand
num_movements = 24;
loading_factor = [1700, 950, 950, 1350, 1700, 1300, 800, 800, 1300, 1950, 1300, 1650, 1200, 850, 1600, 1700, 1250, 1600, 1000, 1700, 1800, 1950, 1850, 1500];
pickup_time = [0, 0, 0, 0, 0, 2, 2, 2, 3, 3, 3, 4, 4, 4, 5, 5, 7, 8, 8, 9, 10, 10, 10, 12];
delivery_time = [2, 2, 2, 2, 2, 4, 3, 3, 4, 4, 4, 10, 10, 7, 8, 7, 13, 9, 10, 10, 13, 12, 13, 13];

% transporter definition
total_capacity = 7000;
num_decks = 3;
capacity = [3000, 1000, 3000];

% ways out of decks
num_ways_out = 1;
paths_out = array3d(decks, ways_out, decks, [
% ways out of deck d1
2, 3, 0, 

% ways out of deck d2
3, 0, 0, 

% ways out of deck d3
0, 0, 0,	

]);

